Clp0006I 0  Obj 0 Primal inf 399.99996 (400) Dual inf 1098252 (40000)
Clp0006I 200  Obj -24004 Primal inf 3521 (364)
Clp0006I 316  Obj -10022 Primal inf 1367 (348)
Clp0006I 393  Obj -10005 Primal inf 1300 (339)
Clp0006I 448  Obj -10005 Primal inf 1693 (337)
Clp0006I 541  Obj -10005 Primal inf 1476 (320)
Clp0006I 608  Obj -10005 Primal inf 849.99997 (293)
Clp0006I 698  Obj -10002 Primal inf 497.99997 (251)
Clp0006I 811  Obj -10000 Primal inf 431.99998 (224)
Clp0006I 900  Obj -9998 Primal inf 200.99999 (121)
Clp0006I 993  Obj -9994 Primal inf 463.99999 (108)
Clp0006I 1057  Obj -9994 Primal inf 120.99999 (58)
Clp0006I 1118  Obj -9994
Clp0000I Optimal - objective value -9994
Clp0000I Optimal - objective value -9994
Node 0 depth 0 unsatisfied 0 sum 0 obj -9994 guess -9994 branching on -1
Clp0000I Optimal - objective value -9994
Cbc0004I Integer solution of -9994 found after 0 iterations and 0 nodes (0.18 seconds)
Cbc0001I Search completed - best objective -9994, took 0 iterations and 0 nodes (0.19 seconds)
Cbc0035I Maximum depth 0, 0 variables fixed on reduced cost
Clp0000I Optimal - objective value -9994
Clp0000I Optimal - objective value -9994
x_44 = 1
x_295 = 1
x_507 = 1
x_762 = 1
x_965 = 1
x_1135 = 1
x_1271 = 1
x_1408 = 1
x_1661 = 1
x_1838 = 1
x_2155 = 1
x_2200 = 1
x_2500 = 1
x_2726 = 1
x_2831 = 1
x_3032 = 1
x_3267 = 1
x_3434 = 1
x_3720 = 1
x_3819 = 1
x_4106 = 1
x_4331 = 1
x_4509 = 1
x_4630 = 1
x_4937 = 1
x_5088 = 1
x_5215 = 1
x_5521 = 1
x_5690 = 1
x_5938 = 1
x_6049 = 1
x_6265 = 1
x_6412 = 1
x_6626 = 1
x_6827 = 1
x_7180 = 1
x_7225 = 1
x_7587 = 1
x_7654 = 1
x_7857 = 1
x_8068 = 1
x_8242 = 1
x_8441 = 1
x_8759 = 1
x_8809 = 1
x_9190 = 1
x_9376 = 1
x_9564 = 1
x_9712 = 1
x_9847 = 1
x_10053 = 1
x_10291 = 1
x_10450 = 1
x_10675 = 1
x_10934 = 1
x_11169 = 1
x_11308 = 1
x_11403 = 1
x_11605 = 1
x_11943 = 1
x_12124 = 1
x_12235 = 1
x_12568 = 1
x_12692 = 1
x_12877 = 1
x_13151 = 1
x_13395 = 1
x_13525 = 1
x_13773 = 1
x_13855 = 1
x_14199 = 1
x_14348 = 1
x_14466 = 1
x_14601 = 1
x_14953 = 1
x_15040 = 1
x_15374 = 1
x_15420 = 1
x_15733 = 1
x_15983 = 1
x_16127 = 1
x_16297 = 1
x_16428 = 1
x_16770 = 1
x_16836 = 1
x_17118 = 1
x_17289 = 1
x_17584 = 1
x_17676 = 1
x_17874 = 1
x_18113 = 1
x_18246 = 1
x_18448 = 1
x_18704 = 1
x_18869 = 1
x_19059 = 1
x_19283 = 1
x_19421 = 1
x_19606 = 1
x_19975 = 1
x_20139 = 1
x_20264 = 1
x_20445 = 1
x_20792 = 1
x_20919 = 1
x_21114 = 1
x_21260 = 1
x_21529 = 1
x_21643 = 1
x_21807 = 1
x_22017 = 1
x_22202 = 1
x_22479 = 1
x_22618 = 1
x_22944 = 1
x_23084 = 1
x_23224 = 1
x_23571 = 1
x_23637 = 1
x_23829 = 1
x_24098 = 1
x_24204 = 1
x_24541 = 1
x_24658 = 1
x_24942 = 1
x_25147 = 1
x_25349 = 1
x_25515 = 1
x_25694 = 1
x_25917 = 1
x_26023 = 1
x_26354 = 1
x_26577 = 1
x_26772 = 1
x_26957 = 1
x_27140 = 1
x_27213 = 1
x_27561 = 1
x_27656 = 1
x_27901 = 1
x_28178 = 1
x_28285 = 1
x_28481 = 1
x_28696 = 1
x_28945 = 1
x_29103 = 1
x_29328 = 1
x_29411 = 1
x_29711 = 1
x_29985 = 1
x_30016 = 1
x_30379 = 1
x_30546 = 1
x_30788 = 1
x_30930 = 1
x_31070 = 1
x_31352 = 1
x_31566 = 1
x_31699 = 1
x_31991 = 1
x_32078 = 1
x_32262 = 1
x_32505 = 1
x_32682 = 1
x_32996 = 1
x_33189 = 1
x_33381 = 1
x_33567 = 1
x_33651 = 1
x_33922 = 1
x_34010 = 1
x_34233 = 1
x_34550 = 1
x_34798 = 1
x_34863 = 1
x_35014 = 1
x_35393 = 1
x_35493 = 1
x_35687 = 1
x_35852 = 1
x_36136 = 1
x_36310 = 1
x_36594 = 1
x_36639 = 1
x_36932 = 1
x_37158 = 1
x_37356 = 1
x_37422 = 1
x_37686 = 1
x_37902 = 1
x_38163 = 1
x_38323 = 1
x_38516 = 1
x_38680 = 1
x_38960 = 1
x_39197 = 1
x_39382 = 1
x_39472 = 1
x_39786 = 1
x_39873 = 1
real 0m0,378s user 0m0,346s sys 0m0,032s
